c instance by G2
c solution = 01011100000010001
c Known solution cost is 742 
p cnf 17 30
w 96 95 10 58 41 68 43 26 13 18 30 16 44 37 44 58 45
-15 13 -4 0
-11 -4 2 0
-2 15 17 0
10 -12 8 0
-6 -3 -4 0
-7 3 14 0
14 1 -11 0
12 10 -8 0
2 12 7 0
-4 -9 -16 0
16 13 9 0
2 8 6 0
-10 -12 8 0
-13 -2 4 0
-14 12 -5 0
-12 -17 -13 0
-16 11 -13 0
10 -8 14 0
-4 5 10 0
-1 11 14 0
-6 -16 10 0
11 -10 1 0
15 17 11 0
10 -9 1 0
15 -14 -3 0
2 -13 14 0
-1 16 -5 0
-13 -5 -10 0
-4 16 -15 0
9 10 6 0
